<number of tasks>
58

<cycle time>
56

<task times>
1 10
2 53
3 41
4 36
5 35
6 17
7 34
8 23
9 14
10 52
11 33
12 34
13 12
14 52
15 12
16 33
17 44
18 7
19 15
20 13
21 29
22 37
23 43
24 23
25 24
26 9
27 16
28 12
29 26
30 22
31 51
32 47
33 34
34 23
35 12
36 52
37 12
38 33
39 44
40 7
41 15
42 13
43 29
44 37
45 43
46 23
47 24
48 9
49 16
50 12
51 26
52 12
53 52
54 12
55 33
56 44
57 7
58 15

<precedence relations>
1,9
2,25
3,21
3,22
4,10
5,36
6,23
6,24
7,43
8,44
9,11
11,13
11,14
11,15
12,17
13,17
14,17
15,17
16,18
17,20
18,19
19,23
20,21
20,25
21,26
21,44
22,27
23,31
24,31
25,38
26,29
27,30
28,32
28,33
29,31
30,34
31,36
32,45
33,35
34,36
35,43
36,37
36,38
37,39
37,40
37,41
38,52
39,43
40,43
41,42
42,43
43,45
44,45
45,46
45,48
45,49
46,47
46,50
47,51
48,55
49,58
50,58
51,52
52,53
53,54
54,55
54,56
55,57
56,57
57,58

<setup times forward>
1,2:1
1,3:2
1,4:2
1,6:2
1,7:4
1,8:1
1,16:1
1,19:2
1,22:3
1,23:1
1,24:1
1,27:1
1,30:4
1,32:4
1,33:1
1,34:1
1,35:3
2,1:1
2,3:1
2,4:1
2,5:1
2,6:1
2,7:3
2,8:2
2,9:1
2,10:1
2,12:1
2,13:3
2,14:1
2,15:2
2,16:2
2,17:3
2,18:1
2,19:1
2,21:1
2,22:2
2,25:1
2,26:3
2,27:2
2,28:1
2,29:2
2,30:3
2,31:1
2,32:3
2,33:2
2,34:2
2,35:2
2,36:1
2,37:2
2,39:2
2,40:2
2,41:2
2,42:2
2,43:2
2,44:2
2,45:1
2,46:1
2,47:1
2,48:1
2,49:1
2,50:2
2,51:2
3,1:2
3,2:1
3,5:2
3,7:2
3,8:3
3,9:2
3,10:2
3,11:1
3,12:2
3,13:2
3,15:1
3,16:3
3,17:2
3,18:2
3,20:1
3,21:2
3,22:1
3,23:1
3,24:1
3,25:2
3,28:2
3,32:2
3,33:3
3,35:1
4,1:2
4,2:1
4,5:2
4,7:2
4,8:3
4,9:2
4,10:2
4,11:1
4,12:2
4,13:2
4,15:1
4,16:3
4,17:2
4,18:2
4,20:1
4,21:2
4,22:1
4,23:1
4,24:1
4,25:2
4,26:2
4,27:3
4,28:2
4,29:3
4,30:2
4,32:2
4,33:3
4,34:3
4,35:1
4,36:2
4,37:3
4,39:3
4,40:3
4,41:3
4,42:1
4,43:1
4,44:3
4,45:2
4,50:1
4,51:1
4,52:1
4,53:2
4,54:2
4,55:2
4,56:2
4,57:2
4,58:2
5,2:1
5,3:2
5,4:2
5,6:2
5,7:4
5,8:1
5,11:1
5,13:4
5,14:2
5,15:3
5,16:1
5,17:4
5,19:2
5,20:1
5,22:3
5,23:1
5,24:1
5,26:4
5,27:1
5,29:1
5,30:4
5,31:2
5,32:4
5,33:1
5,34:1
5,35:3
5,44:1
6,1:2
6,2:1
6,5:2
6,7:2
6,8:3
6,9:2
6,10:2
6,11:1
6,12:2
6,13:2
6,15:1
6,16:3
6,17:2
6,18:2
6,20:1
6,21:2
6,22:1
6,23:1
6,24:1
6,25:2
6,26:2
6,27:3
6,28:2
6,29:3
6,30:2
6,32:2
6,33:3
6,34:3
6,35:1
6,44:3
7,1:4
7,2:3
7,3:2
7,4:2
7,5:4
7,6:2
7,8:5
7,9:4
7,10:4
7,11:3
7,12:4
7,14:2
7,15:1
7,16:5
7,18:4
7,19:2
7,20:3
7,21:4
7,22:1
7,23:3
7,24:3
7,25:4
7,27:5
7,28:4
7,29:5
7,31:2
7,33:5
7,34:5
7,35:1
7,36:4
7,37:5
7,38:2
7,39:5
7,40:5
7,41:5
7,42:1
7,43:1
7,44:5
8,1:1
8,2:2
8,3:3
8,4:3
8,5:1
8,6:3
8,7:5
8,9:1
8,10:1
8,11:2
8,12:1
8,13:5
8,14:3
8,15:4
8,17:5
8,18:1
8,19:3
8,20:2
8,21:1
8,22:4
8,23:2
8,24:2
8,25:1
8,26:5
8,28:1
8,30:5
8,31:3
8,32:5
8,35:4
8,36:1
8,38:3
8,42:4
8,43:4
9,2:1
9,3:2
9,4:2
9,6:2
9,7:4
9,8:1
9,11:1
9,16:1
9,19:2
9,22:3
9,23:1
9,24:1
9,27:1
9,30:4
9,32:4
9,33:1
9,34:1
9,35:3
10,2:1
10,3:2
10,6:2
10,7:4
10,8:1
10,11:1
10,13:4
10,14:2
10,15:3
10,16:1
10,17:4
10,19:2
10,20:1
10,22:3
10,23:1
10,24:1
10,26:4
10,27:1
10,29:1
10,30:4
10,31:2
10,32:4
10,33:1
10,34:1
10,35:3
10,37:1
10,38:2
10,39:1
10,40:1
10,41:1
10,42:3
10,43:3
10,44:1
10,46:2
10,47:2
10,48:2
10,49:2
10,50:3
10,51:3
10,52:3
10,53:4
10,55:4
10,57:4
10,58:4
11,3:1
11,4:1
11,5:1
11,6:1
11,7:3
11,8:2
11,10:1
11,12:1
11,13:3
11,14:1
11,15:2
11,16:2
11,18:1
11,19:1
11,22:2
11,27:2
11,28:1
11,30:3
11,32:3
11,33:2
11,34:2
11,35:2
12,2:1
12,3:2
12,4:2
12,6:2
12,7:4
12,8:1
12,11:1
12,13:4
12,14:2
12,15:3
12,16:1
12,17:4
12,19:2
12,22:3
12,23:1
12,24:1
12,27:1
12,30:4
12,32:4
12,33:1
12,34:1
12,35:3
13,2:3
13,3:2
13,4:2
13,5:4
13,6:2
13,8:5
13,10:4
13,12:4
13,14:2
13,15:1
13,16:5
13,18:4
13,19:2
13,22:1
13,23:3
13,24:3
13,27:5
13,28:4
13,33:5
13,34:5
13,35:1
14,2:1
14,5:2
14,7:2
14,8:3
14,10:2
14,12:2
14,13:2
14,15:1
14,16:3
14,17:2
14,18:2
14,22:1
14,23:1
14,24:1
14,27:3
14,28:2
14,30:2
14,32:2
14,33:3
14,34:3
14,35:1
15,2:2
15,3:1
15,4:1
15,5:3
15,6:1
15,7:1
15,8:4
15,10:3
15,12:3
15,13:1
15,14:1
15,16:4
15,17:1
15,18:3
15,19:1
15,23:2
15,24:2
15,27:4
15,28:3
15,30:1
15,32:1
15,33:4
15,34:4
16,1:1
16,2:2
16,3:3
16,4:3
16,5:1
16,6:3
16,7:5
16,9:1
16,10:1
16,11:2
16,12:1
16,13:5
16,14:3
16,15:4
16,17:5
16,18:1
16,20:2
16,21:1
16,22:4
16,24:2
16,25:1
16,26:5
16,28:1
16,30:5
16,32:5
16,35:4
17,2:3
17,3:2
17,4:2
17,5:4
17,6:2
17,8:5
17,10:4
17,16:5
17,18:4
17,19:2
17,20:3
17,22:1
17,23:3
17,24:3
17,27:5
17,28:4
17,33:5
17,34:5
17,35:1
18,2:1
18,3:2
18,4:2
18,6:2
18,7:4
18,8:1
18,11:1
18,13:4
18,14:2
18,15:3
18,17:4
18,19:2
18,20:1
18,22:3
18,24:1
18,26:4
18,27:1
18,29:1
18,30:4
18,32:4
18,33:1
18,34:1
18,35:3
18,44:1
19,1:2
19,2:1
19,5:2
19,7:2
19,8:3
19,9:2
19,10:2
19,11:1
19,12:2
19,13:2
19,15:1
19,17:2
19,20:1
19,21:2
19,22:1
19,23:1
19,24:1
19,25:2
19,26:2
19,27:3
19,28:2
19,29:3
19,30:2
19,32:2
19,33:3
19,34:3
19,35:1
19,44:3
20,3:1
20,4:1
20,5:1
20,6:1
20,7:3
20,8:2
20,10:1
20,16:2
20,18:1
20,19:1
20,21:1
20,22:2
20,25:1
20,27:2
20,28:1
20,30:3
20,32:3
20,33:2
20,34:2
20,35:2
21,2:1
21,4:2
21,6:2
21,7:4
21,8:1
21,16:1
21,19:2
21,22:3
21,23:1
21,24:1
21,26:4
21,27:1
21,30:4
21,32:4
21,33:1
21,34:1
21,35:3
21,44:1
22,1:3
22,2:2
22,4:1
22,5:3
22,6:1
22,7:1
22,8:4
22,9:3
22,10:3
22,11:2
22,12:3
22,13:1
22,14:1
22,16:4
22,17:1
22,18:3
22,19:1
22,20:2
22,21:3
22,23:2
22,24:2
22,25:3
22,26:1
22,27:4
22,28:3
22,29:4
22,31:1
22,32:1
22,33:4
22,44:4
23,1:1
23,3:1
23,4:1
23,5:1
23,7:3
23,8:2
23,9:1
23,10:1
23,12:1
23,13:3
23,14:1
23,15:2
23,17:3
23,21:1
23,22:2
23,25:1
23,26:3
23,27:2
23,28:1
23,29:2
23,30:3
23,31:1
23,32:3
23,33:2
23,34:2
23,35:2
23,44:2
24,1:1
24,3:1
24,4:1
24,5:1
24,7:3
24,8:2
24,9:1
24,10:1
24,12:1
24,13:3
24,14:1
24,15:2
24,16:2
24,17:3
24,18:1
24,19:1
24,21:1
24,22:2
24,25:1
24,26:3
24,27:2
24,28:1
24,29:2
24,30:3
24,31:1
24,32:3
24,33:2
24,34:2
24,35:2
24,44:2
25,3:2
25,4:2
25,6:2
25,7:4
25,8:1
25,16:1
25,19:2
25,22:3
25,23:1
25,24:1
25,26:4
25,27:1
25,29:1
25,30:4
25,31:2
25,32:4
25,33:1
25,34:1
25,35:3
25,37:1
25,38:2
25,39:1
25,40:1
25,41:1
25,42:3
25,43:3
25,44:1
25,46:2
25,47:2
25,48:2
25,49:2
25,50:3
25,51:3
26,2:3
26,4:2
26,5:4
26,6:2
26,8:5
26,10:4
26,16:5
26,18:4
26,19:2
26,22:1
26,23:3
26,24:3
26,25:4
26,27:5
26,28:4
26,29:5
26,33:5
26,34:5
26,35:1
26,44:5
27,1:1
27,2:2
27,4:3
27,5:1
27,6:3
27,7:5
27,9:1
27,10:1
27,11:2
27,12:1
27,13:5
27,14:3
27,15:4
27,17:5
27,18:1
27,19:3
27,20:2
27,21:1
27,23:2
27,24:2
27,25:1
27,26:5
27,28:1
27,30:5
27,31:3
27,32:5
27,35:4
28,2:1
28,3:2
28,4:2
28,6:2
28,7:4
28,8:1
28,11:1
28,13:4
28,14:2
28,15:3
28,16:1
28,17:4
28,19:2
28,20:1
28,22:3
28,23:1
28,24:1
28,26:4
28,27:1
28,29:1
28,30:4
28,31:2
28,32:4
28,33:1
28,34:1
28,37:1
28,38:2
28,39:1
28,40:1
28,41:1
28,42:3
28,44:1
29,2:2
29,4:3
29,5:1
29,6:3
29,7:5
29,10:1
29,18:1
29,19:3
29,22:4
29,23:2
29,24:2
29,25:1
29,28:1
29,30:5
29,31:3
29,32:5
29,35:4
30,1:4
30,2:3
30,4:2
30,5:4
30,6:2
30,8:5
30,9:4
30,10:4
30,11:3
30,12:4
30,14:2
30,15:1
30,16:5
30,18:4
30,19:2
30,20:3
30,21:4
30,23:3
30,24:3
30,25:4
30,28:4
30,29:5
30,31:2
30,33:5
30,34:5
30,35:1
30,44:5
31,2:1
31,5:2
31,7:2
31,8:3
31,10:2
31,22:1
31,25:2
31,27:3
31,28:2
31,30:2
31,32:2
31,33:3
31,34:3
31,35:1
31,36:2
31,44:3
32,1:4
32,2:3
32,3:2
32,4:2
32,5:4
32,6:2
32,8:5
32,9:4
32,10:4
32,11:3
32,12:4
32,14:2
32,15:1
32,16:5
32,18:4
32,19:2
32,20:3
32,21:4
32,22:1
32,23:3
32,24:3
32,25:4
32,27:5
32,29:5
32,31:2
32,33:5
32,34:5
32,35:1
32,36:4
32,37:5
32,38:2
32,39:5
32,40:5
32,41:5
32,42:1
32,43:1
32,44:5
32,45:4
33,1:1
33,2:2
33,3:3
33,4:3
33,5:1
33,6:3
33,7:5
33,9:1
33,10:1
33,11:2
33,12:1
33,13:5
33,14:3
33,15:4
33,17:5
33,18:1
33,19:3
33,20:2
33,21:1
33,22:4
33,23:2
33,24:2
33,25:1
33,26:5
33,30:5
33,31:3
33,32:5
33,35:4
33,36:1
33,38:3
33,42:4
34,1:1
34,2:2
34,4:3
34,5:1
34,6:3
34,7:5
34,9:1
34,10:1
34,11:2
34,12:1
34,13:5
34,14:3
34,15:4
34,17:5
34,18:1
34,19:3
34,20:2
34,21:1
34,23:2
34,24:2
34,25:1
34,26:5
34,28:1
34,31:3
34,32:5
34,35:4
34,36:1
35,1:3
35,2:2
35,3:1
35,4:1
35,5:3
35,6:1
35,7:1
35,8:4
35,9:3
35,10:3
35,11:2
35,12:3
35,13:1
35,14:1
35,16:4
35,17:1
35,18:3
35,19:1
35,20:2
35,21:3
35,23:2
35,24:2
35,25:3
35,26:1
35,27:4
35,29:4
35,30:1
35,31:1
35,32:1
35,34:4
35,36:3
35,37:4
35,38:1
35,39:4
35,40:4
35,41:4
35,44:4
36,2:1
36,4:2
36,7:4
36,8:1
36,32:4
36,33:1
36,35:3
36,37:1
36,38:2
36,44:1
37,2:2
37,4:3
37,7:5
37,10:1
37,25:1
37,28:1
37,32:5
37,35:4
37,38:3
38,7:2
38,8:3
38,10:2
38,28:2
38,32:2
38,33:3
38,35:1
38,37:3
38,39:3
38,40:3
38,41:3
38,42:1
38,43:1
38,44:3
38,45:2
38,50:1
38,51:1
38,52:1
39,2:2
39,4:3
39,7:5
39,10:1
39,25:1
39,28:1
39,32:5
39,35:4
39,38:3
39,42:4
39,43:4
40,2:2
40,4:3
40,7:5
40,10:1
40,25:1
40,28:1
40,32:5
40,35:4
40,38:3
40,42:4
40,43:4
41,2:2
41,4:3
41,7:5
41,10:1
41,25:1
41,28:1
41,32:5
41,35:4
41,38:3
41,42:4
42,2:2
42,4:1
42,7:1
42,8:4
42,10:3
42,25:3
42,28:3
42,32:1
42,33:4
42,38:1
42,39:4
42,40:4
42,44:4
43,2:2
43,4:1
43,8:4
43,10:3
43,25:3
43,32:1
43,38:1
43,44:4
43,45:3
44,2:2
44,4:3
44,5:1
44,6:3
44,7:5
44,10:1
44,18:1
44,19:3
44,22:4
44,23:2
44,24:2
44,25:1
44,26:5
44,28:1
44,30:5
44,31:3
44,32:5
44,35:4
44,36:1
44,38:3
44,42:4
44,43:4
44,45:1
45,2:1
45,4:2
45,38:2
45,46:2
45,48:2
45,49:2
46,2:1
46,10:2
46,25:2
46,50:1
47,2:1
47,10:2
47,25:2
47,50:1
47,51:1
48,2:1
48,10:2
48,25:2
48,50:1
48,51:1
48,52:1
48,53:2
48,54:2
48,55:2
48,56:2
49,2:1
49,10:2
49,25:2
49,50:1
49,51:1
49,52:1
49,53:2
49,54:2
49,55:2
49,56:2
49,57:2
49,58:2
50,2:2
50,4:1
50,10:3
50,25:3
50,38:1
50,47:1
50,48:1
50,49:1
50,53:1
50,54:3
50,55:1
50,56:3
50,57:1
50,58:1
51,2:2
51,4:1
51,10:3
51,25:3
51,38:1
51,48:1
51,49:1
52,4:1
52,10:3
52,48:1
52,49:1
52,53:1
53,4:2
53,10:4
53,48:2
53,49:2
53,50:1
53,54:4
54,4:2
54,48:2
54,49:2
54,50:3
54,55:4
55,4:2
55,10:4
55,49:2
55,50:1
55,56:4
56,4:2
56,48:2
56,49:2
56,50:3
56,55:4
56,57:4
57,4:2
57,10:4
57,49:2
57,50:1
58,4:2
58,10:4

<setup times backward>
1,2:1
1,3:2
1,4:2
1,6:2
1,7:4
1,19:2
1,22:3
1,23:1
1,24:1
1,30:4
1,32:4
1,35:3
2,3:1
2,4:1
2,6:1
2,7:3
2,13:3
2,14:1
2,15:2
2,17:3
2,19:1
2,22:2
2,26:3
2,30:3
2,31:1
2,32:3
2,35:2
2,42:2
2,43:2
2,46:1
2,47:1
2,48:1
2,49:1
2,50:2
2,51:2
3,7:2
3,13:2
3,15:1
3,17:2
3,32:2
3,35:1
4,7:2
4,13:2
4,15:1
4,17:2
4,22:1
4,26:2
4,30:2
4,32:2
4,35:1
4,42:1
4,43:1
4,50:1
4,51:1
4,52:1
4,53:2
4,55:2
4,57:2
4,58:2
5,2:1
5,3:2
5,4:2
5,6:2
5,7:4
5,11:1
5,13:4
5,14:2
5,15:3
5,17:4
5,19:2
5,20:1
5,22:3
5,23:1
5,24:1
5,26:4
5,30:4
5,31:2
5,32:4
5,35:3
6,7:2
6,13:2
6,15:1
6,17:2
6,22:1
6,26:2
6,30:2
6,32:2
6,35:1
8,1:1
8,2:2
8,3:3
8,4:3
8,5:1
8,6:3
8,7:5
8,9:1
8,10:1
8,11:2
8,12:1
8,13:5
8,14:3
8,15:4
8,17:5
8,18:1
8,19:3
8,20:2
8,21:1
8,22:4
8,23:2
8,24:2
8,25:1
8,26:5
8,28:1
8,30:5
8,31:3
8,32:5
8,35:4
8,36:1
8,38:3
8,42:4
8,43:4
9,2:1
9,3:2
9,4:2
9,6:2
9,7:4
9,19:2
9,22:3
9,23:1
9,24:1
9,30:4
9,32:4
9,35:3
10,2:1
10,3:2
10,4:2
10,6:2
10,7:4
10,11:1
10,13:4
10,14:2
10,15:3
10,17:4
10,19:2
10,20:1
10,22:3
10,23:1
10,24:1
10,26:4
10,30:4
10,31:2
10,32:4
10,35:3
10,38:2
10,42:3
10,43:3
10,46:2
10,47:2
10,48:2
10,49:2
10,50:3
10,51:3
10,52:3
10,53:4
10,55:4
10,57:4
10,58:4
11,3:1
11,4:1
11,6:1
11,7:3
11,19:1
11,22:2
11,30:3
11,32:3
11,35:2
12,2:1
12,3:2
12,4:2
12,6:2
12,7:4
12,11:1
12,13:4
12,14:2
12,15:3
12,19:2
12,22:3
12,23:1
12,24:1
12,30:4
12,32:4
12,35:3
14,7:2
14,13:2
14,15:1
14,22:1
14,30:2
14,32:2
14,35:1
15,7:1
15,13:1
15,30:1
15,32:1
16,1:1
16,2:2
16,3:3
16,4:3
16,5:1
16,6:3
16,7:5
16,9:1
16,10:1
16,11:2
16,12:1
16,13:5
16,14:3
16,15:4
16,17:5
16,20:2
16,21:1
16,22:4
16,24:2
16,25:1
16,26:5
16,28:1
16,30:5
16,32:5
16,35:4
18,2:1
18,3:2
18,4:2
18,6:2
18,7:4
18,11:1
18,13:4
18,14:2
18,15:3
18,17:4
18,20:1
18,22:3
18,24:1
18,26:4
18,30:4
18,32:4
18,35:3
19,7:2
19,13:2
19,15:1
19,17:2
19,22:1
19,26:2
19,30:2
19,32:2
19,35:1
20,3:1
20,4:1
20,6:1
20,7:3
20,13:3
20,14:1
20,15:2
20,17:3
20,19:1
20,22:2
20,30:3
20,32:3
20,35:2
21,2:1
21,3:2
21,4:2
21,6:2
21,7:4
21,11:1
21,13:4
21,14:2
21,15:3
21,17:4
21,19:2
21,20:1
21,22:3
21,23:1
21,24:1
21,30:4
21,32:4
21,35:3
22,7:1
22,13:1
22,17:1
22,26:1
22,32:1
23,3:1
23,4:1
23,6:1
23,7:3
23,13:3
23,14:1
23,15:2
23,17:3
23,19:1
23,22:2
23,26:3
23,30:3
23,32:3
23,35:2
24,3:1
24,4:1
24,6:1
24,7:3
24,13:3
24,14:1
24,15:2
24,17:3
24,19:1
24,22:2
24,26:3
24,30:3
24,32:3
24,35:2
25,2:1
25,3:2
25,4:2
25,6:2
25,7:4
25,11:1
25,13:4
25,14:2
25,15:3
25,17:4
25,19:2
25,20:1
25,22:3
25,23:1
25,24:1
25,26:4
25,30:4
25,31:2
25,32:4
25,35:3
25,42:3
25,43:3
25,46:2
25,47:2
25,48:2
25,49:2
25,50:3
25,51:3
27,1:1
27,2:2
27,3:3
27,4:3
27,5:1
27,6:3
27,7:5
27,9:1
27,10:1
27,11:2
27,12:1
27,13:5
27,14:3
27,15:4
27,17:5
27,18:1
27,19:3
27,20:2
27,21:1
27,22:4
27,23:2
27,24:2
27,25:1
27,26:5
27,28:1
27,31:3
27,32:5
27,35:4
28,2:1
28,3:2
28,4:2
28,6:2
28,7:4
28,11:1
28,13:4
28,14:2
28,15:3
28,17:4
28,19:2
28,20:1
28,22:3
28,23:1
28,24:1
28,26:4
28,30:4
28,31:2
28,38:2
28,42:3
29,1:1
29,2:2
29,3:3
29,4:3
29,5:1
29,6:3
29,7:5
29,9:1
29,10:1
29,11:2
29,12:1
29,13:5
29,14:3
29,15:4
29,17:5
29,18:1
29,19:3
29,20:2
29,21:1
29,22:4
29,23:2
29,24:2
29,25:1
29,26:5
29,28:1
29,30:5
29,32:5
29,35:4
31,7:2
31,13:2
31,15:1
31,17:2
31,22:1
31,26:2
31,30:2
31,32:2
31,35:1
33,1:1
33,2:2
33,3:3
33,4:3
33,5:1
33,6:3
33,7:5
33,9:1
33,10:1
33,11:2
33,12:1
33,13:5
33,14:3
33,15:4
33,17:5
33,18:1
33,19:3
33,20:2
33,21:1
33,22:4
33,23:2
33,24:2
33,25:1
33,26:5
33,28:1
33,30:5
33,31:3
33,32:5
33,36:1
33,38:3
33,42:4
34,1:1
34,2:2
34,3:3
34,4:3
34,5:1
34,6:3
34,7:5
34,9:1
34,10:1
34,11:2
34,12:1
34,13:5
34,14:3
34,15:4
34,17:5
34,18:1
34,19:3
34,20:2
34,21:1
34,22:4
34,23:2
34,24:2
34,25:1
34,26:5
34,28:1
34,30:5
34,31:3
34,32:5
34,35:4
35,7:1
35,13:1
35,17:1
35,26:1
35,30:1
35,32:1
36,2:1
36,3:2
36,4:2
36,6:2
36,7:4
36,11:1
36,13:4
36,14:2
36,15:3
36,17:4
36,19:2
36,20:1
36,22:3
36,23:1
36,24:1
36,26:4
36,30:4
36,31:2
36,32:4
36,35:3
37,1:1
37,2:2
37,3:3
37,4:3
37,5:1
37,6:3
37,7:5
37,9:1
37,10:1
37,11:2
37,12:1
37,13:5
37,14:3
37,15:4
37,17:5
37,18:1
37,19:3
37,20:2
37,21:1
37,22:4
37,23:2
37,24:2
37,25:1
37,26:5
37,28:1
37,30:5
37,31:3
37,32:5
37,35:4
37,36:1
37,38:3
38,7:2
38,13:2
38,15:1
38,17:2
38,22:1
38,26:2
38,30:2
38,32:2
38,35:1
38,42:1
38,43:1
38,50:1
38,51:1
39,1:1
39,2:2
39,3:3
39,4:3
39,5:1
39,6:3
39,7:5
39,9:1
39,10:1
39,11:2
39,12:1
39,13:5
39,14:3
39,15:4
39,17:5
39,18:1
39,19:3
39,20:2
39,21:1
39,22:4
39,23:2
39,24:2
39,25:1
39,26:5
39,28:1
39,30:5
39,31:3
39,32:5
39,35:4
39,36:1
39,38:3
39,42:4
40,1:1
40,2:2
40,3:3
40,4:3
40,5:1
40,6:3
40,7:5
40,9:1
40,10:1
40,11:2
40,12:1
40,13:5
40,14:3
40,15:4
40,17:5
40,18:1
40,19:3
40,20:2
40,21:1
40,22:4
40,23:2
40,24:2
40,25:1
40,26:5
40,28:1
40,30:5
40,31:3
40,32:5
40,35:4
40,36:1
40,38:3
40,42:4
41,1:1
41,2:2
41,3:3
41,4:3
41,5:1
41,6:3
41,7:5
41,9:1
41,10:1
41,11:2
41,12:1
41,13:5
41,14:3
41,15:4
41,17:5
41,18:1
41,19:3
41,20:2
41,21:1
41,22:4
41,23:2
41,24:2
41,25:1
41,26:5
41,28:1
41,30:5
41,31:3
41,32:5
41,35:4
41,36:1
41,38:3
42,7:1
42,13:1
42,17:1
42,26:1
42,30:1
42,32:1
43,7:1
43,13:1
43,17:1
43,26:1
43,30:1
43,32:1
44,1:1
44,2:2
44,3:3
44,4:3
44,5:1
44,6:3
44,7:5
44,9:1
44,10:1
44,11:2
44,12:1
44,13:5
44,14:3
44,15:4
44,17:5
44,18:1
44,19:3
44,20:2
44,21:1
44,22:4
44,23:2
44,24:2
44,25:1
44,26:5
44,28:1
44,30:5
44,31:3
44,32:5
44,35:4
44,36:1
44,38:3
44,42:4
44,43:4
45,2:1
45,3:2
45,4:2
45,6:2
45,7:4
45,11:1
45,13:4
45,14:2
45,15:3
45,17:4
45,19:2
45,20:1
45,22:3
45,23:1
45,24:1
45,26:4
45,30:4
45,31:2
45,32:4
45,35:3
45,38:2
45,42:3
45,43:3
46,7:2
46,13:2
46,15:1
46,17:2
46,22:1
46,26:2
46,30:2
46,32:2
46,35:1
46,42:1
46,43:1
47,7:2
47,13:2
47,15:1
47,17:2
47,22:1
47,26:2
47,30:2
47,32:2
47,35:1
47,42:1
47,43:1
47,50:1
48,7:2
48,13:2
48,15:1
48,17:2
48,22:1
48,26:2
48,30:2
48,32:2
48,35:1
48,42:1
48,43:1
48,50:1
48,51:1
48,52:1
48,53:2
49,7:2
49,13:2
49,15:1
49,17:2
49,22:1
49,26:2
49,30:2
49,32:2
49,35:1
49,42:1
49,43:1
49,50:1
49,51:1
49,52:1
49,53:2
49,55:2
49,57:2
50,7:1
50,13:1
50,17:1
50,26:1
50,30:1
50,32:1
50,53:1
50,55:1
50,57:1
51,7:1
51,13:1
51,17:1
51,26:1
51,30:1
51,32:1
52,7:1
52,13:1
52,17:1
52,26:1
52,30:1
52,32:1
54,2:1
54,3:2
54,4:2
54,6:2
54,7:4
54,11:1
54,13:4
54,14:2
54,15:3
54,17:4
54,19:2
54,20:1
54,22:3
54,23:1
54,24:1
54,26:4
54,30:4
54,31:2
54,32:4
54,35:3
54,38:2
54,42:3
54,43:3
54,46:2
54,47:2
54,48:2
54,49:2
54,50:3
54,51:3
54,52:3
54,53:4
56,2:1
56,3:2
56,4:2
56,6:2
56,7:4
56,11:1
56,13:4
56,14:2
56,15:3
56,17:4
56,19:2
56,20:1
56,22:3
56,23:1
56,24:1
56,26:4
56,30:4
56,31:2
56,32:4
56,35:3
56,38:2
56,42:3
56,43:3
56,46:2
56,47:2
56,48:2
56,49:2
56,50:3
56,51:3
56,52:3
56,53:4
56,55:4

<end>

<optimal SALBP-1 value>
29


<rand seed>
467321153

